p cnf 53 157
a 40 5 0
e 1 2 3 4 6 7 8 9 10 11 12 13 14 15 16 17 18 19 20 21 22 23 24 25 26 27 28 29 30 31 32 33 34 35 36 37 38 39 41 42 43 44 45 46 47 48 49 50 51 52 53 0
1 2 -3 0
-1 -2 -3 0
1 -2 3 0
-1 2 3 0
4 -1 0
4 3 0
1 -3 -4 0
6 -1 0
6 5 0
1 -5 -6 0
-4 6 -7 0
4 -6 -7 0
-4 -6 7 0
4 6 7 0
-8 4 -9 0
8 -4 -9 0
-8 -4 9 0
8 4 9 0
-12 -10 0
-12 11 0
10 -11 12 0
-13 -9 0
-13 12 0
9 -12 13 0
15 1 0
15 -5 0
-1 5 -15 0
-16 -14 0
-16 15 0
14 -15 16 0
2 5 -17 0
-2 -5 -17 0
2 -5 17 0
-2 5 17 0
18 -16 0
18 17 0
16 -17 -18 0
-20 -19 0
-20 -17 0
19 17 20 0
-21 -18 0
-21 20 0
18 -20 21 0
13 21 -22 0
-13 -21 -22 0
13 -21 22 0
-13 21 22 0
23 -7 0
23 22 0
7 -22 -23 0
-24 -4 0
-24 -19 0
4 19 24 0
-24 5 -25 0
24 -5 -25 0
-24 -5 25 0
24 5 25 0
-26 -25 0
-26 -12 0
25 12 26 0
27 11 0
27 14 0
-11 -14 -27 0
28 14 0
28 -27 0
-14 27 -28 0
-26 28 -29 0
26 -28 -29 0
-26 -28 29 0
26 28 29 0
30 -23 0
30 29 0
23 -29 -30 0
-31 -15 0
-31 -3 0
15 3 31 0
13 -16 -32 0
-13 16 -32 0
13 16 32 0
-13 -16 32 0
33 18 0
33 3 0
-18 -3 -33 0
-34 -32 0
-34 -33 0
32 33 34 0
35 8 0
35 20 0
-8 -20 -35 0
36 -4 0
36 -35 0
4 35 -36 0
-34 36 -37 0
34 -36 -37 0
-34 -36 37 0
34 36 37 0
38 31 0
38 37 0
-31 -37 -38 0
-30 38 -39 0
30 -38 -39 0
-30 -38 39 0
30 38 39 0
40 -13 0
40 10 0
13 -10 -40 0
41 -14 0
41 9 0
14 -9 -41 0
-42 -4 -43 0
42 4 -43 0
-42 4 43 0
42 -4 43 0
-44 41 0
-44 -43 0
-41 43 44 0
-46 45 0
-46 -8 0
-45 8 46 0
47 46 0
47 16 0
-46 -16 -47 0
48 44 0
48 -47 0
-44 47 -48 0
9 -6 -49 0
-9 6 -49 0
9 6 49 0
-9 -6 49 0
-50 -3 0
-50 -49 0
3 49 50 0
-48 -50 -51 0
48 50 -51 0
-48 50 51 0
48 -50 51 0
52 -40 0
52 -51 0
40 51 -52 0
53 -39 0
53 52 0
39 -52 -53 0
45 22 -14 -17 44 0
-16 39 -51 0
-31 -19 -7 0
40 25 -34 38 0
-29 -41 -30 53 33 0
-38 -50 7 0
22 32 4 0
48 17 -28 -23 50 0
-11 52 -23 -47 -50 -10 -4 0
-24 52 -18 -40 -32 0
50 48 -44 18 1 47 35 0
-24 -53 -28 -16 0
12 44 24 29 -28 -45 0
32 -13 20 -50 -22 -26 -48 0
53 0
